<number of tasks>
50

<cycle time>
1000

<order strength>
0.598


<task times>
1 333
2 105
3 158
4 120
5 293
6 33
7 26
8 37
9 85
10 74
11 115
12 187
13 108
14 205
15 104
16 299
17 197
18 293
19 225
20 238
21 158
22 66
23 97
24 101
25 34
26 45
27 132
28 262
29 29
30 30
31 139
32 200
33 180
34 239
35 155
36 97
37 147
38 45
39 179
40 68
41 229
42 126
43 93
44 79
45 203
46 121
47 145
48 374
49 131
50 58

<precedence relations>
1,4
2,3
2,5
2,6
3,7
4,8
5,8
5,9
5,10
5,11
5,12
6,8
6,9
6,10
6,11
6,12
7,13
8,14
8,15
8,16
9,14
9,15
9,16
10,14
11,15
12,20
12,31
13,17
14,18
14,19
14,20
14,21
14,22
14,26
15,20
15,31
16,20
16,21
16,22
16,26
17,26
18,24
19,25
20,23
20,27
21,27
21,30
21,31
22,31
22,32
22,33
23,28
24,29
25,30
26,30
26,31
27,32
27,33
27,37
28,34
29,36
30,37
30,40
31,35
31,37
32,40
32,43
33,41
34,40
35,39
36,40
37,38
37,41
37,42
37,43
37,47
38,45
39,46
40,44
40,47
43,48
43,50
44,49
45,50
46,50
47,50

<end>
